Maximize
  obj: 0y1 + y2 + 0y3
Subject To
 C0: y2 + 0.004000y1 <= 500.000000
 C1: y2 + 0.012001y1 <= 500.032004
 C2: y2 + 0.020004y1 <= 500.096029
 C3: y2 + 0.028011y1 <= 500.192114
 C4: y2 + 0.036024y1 <= 500.320313
 C5: y2 + 0.044043y1 <= 500.480700
 C6: y2 + 0.052071y1 <= 500.673369
 C7: y2 + 0.060109y1 <= 500.898430
 C8: y2 + 0.068158y1 <= 501.156015
 C9: y2 + 0.076221y1 <= 501.446274
 C10: y2 + 0.084299y1 <= 501.769376
 C11: y2 + 0.092393y1 <= 502.125511
 C12: y2 + 0.100505y1 <= 502.514888
 C13: y2 + 0.108636y1 <= 502.937737
 C14: y2 + 0.116789y1 <= 503.394308
 C15: y2 + 0.124965y1 <= 503.884875
 C16: y2 + 0.133166y1 <= 504.409729
 C17: y2 + 0.141394y1 <= 504.969189
 C18: y2 + 0.149649y1 <= 505.563591
 C19: y2 + 0.157935y1 <= 506.193299
 C20: y2 + 0.166252y1 <= 506.858698
 C21: y2 + 0.174604y1 <= 507.560199
 C22: y2 + 0.182990y1 <= 508.298238
 C23: y2 + 0.191415y1 <= 509.073277
 C24: y2 + 0.199879y1 <= 509.885805
 C25: y2 + 0.208384y1 <= 510.736339
 C26: y2 + 0.216933y1 <= 511.625426
 C27: y2 + 0.225527y1 <= 512.553640
 C28: y2 + 0.234170y1 <= 513.521589
 C29: y2 + 0.242862y1 <= 514.529912
 C30: y2 + 0.251607y1 <= 515.579280
 C31: y2 + 0.260406y1 <= 516.670401
 C32: y2 + 0.269263y1 <= 517.804018
 C33: y2 + 0.278179y1 <= 518.980910
 C34: y2 + 0.287156y1 <= 520.201899
 C35: y2 + 0.296199y1 <= 521.467845
 C36: y2 + 0.305309y1 <= 522.779651
 C37: y2 + 0.314488y1 <= 524.138266
 C38: y2 + 0.323741y1 <= 525.544686
 C39: y2 + 0.333070y1 <= 526.999954
 C40: y2 + 0.342477y1 <= 528.505167
 C41: y2 + 0.351967y1 <= 530.061474
 C42: y2 + 0.361542y1 <= 531.670082
 C43: y2 + 0.371206y1 <= 533.332258
 C44: y2 + 0.380962y1 <= 535.049330
 C45: y2 + 0.390814y1 <= 536.822695
 C46: y2 + 0.400766y1 <= 538.653817
 C47: y2 + 0.410821y1 <= 540.544236
 C48: y2 + 0.420984y1 <= 542.495569
 C49: y2 + 0.431260y1 <= 544.509513
 C50: y2 + 0.441651y1 <= 546.587856
 C51: y2 + 0.452164y1 <= 548.732476
 C52: y2 + 0.462803y1 <= 550.945348
 C53: y2 + 0.473573y1 <= 553.228553
 C54: y2 + 0.484479y1 <= 555.584280
 C55: y2 + 0.495527y1 <= 558.014838
 C56: y2 + 0.506723y1 <= 560.522656
 C57: y2 + 0.518072y1 <= 563.110302
 C58: y2 + 0.529581y1 <= 565.780479
 C59: y2 + 0.541258y1 <= 568.536047
 C60: y2 + 0.553107y1 <= 571.380025
 C61: y2 + 0.565138y1 <= 574.315605
 C62: y2 + 0.577358y1 <= 577.346164
 C63: y2 + 0.589776y1 <= 580.475278
 C64: y2 + 0.602398y1 <= 583.706737
 C65: y2 + 0.615236y1 <= 587.044560
 C66: y2 + 0.628299y1 <= 590.493012
 C67: y2 + 0.641596y1 <= 594.056623
 C68: y2 + 0.655138y1 <= 597.740214
 C69: y2 + 0.668938y1 <= 601.548910
 C70: y2 + 0.683007y1 <= 605.488177
 C71: y2 + 0.697358y1 <= 609.563840
 C72: y2 + 0.712004y1 <= 613.782122
 C73: y2 + 0.726962y1 <= 618.149672
 C74: y2 + 0.742245y1 <= 622.673608
 C75: y2 + 0.757872y1 <= 627.361555
 C76: y2 + 0.773859y1 <= 632.221694
 C77: y2 + 0.790226y1 <= 637.262817
 C78: y2 + 0.806994y1 <= 642.494380
 C79: y2 + 0.824185y1 <= 647.926573
 C80: y2 + 0.841822y1 <= 653.570391
 C81: y2 + 0.859931y1 <= 659.437722
 C82: y2 + 0.878540y1 <= 665.541432
 C83: y2 + 0.897678y1 <= 671.895482
 C84: y2 + 0.917379y1 <= 678.515039
 C85: y2 + 0.937678y1 <= 685.416620
 C86: y2 + 0.958613y1 <= 692.618243
 C87: y2 + 0.980226y1 <= 700.139612
 C88: y2 + 1.002563y1 <= 708.002320
 C89: y2 + 1.025675y1 <= 716.230091
 C90: y2 + 1.049617y1 <= 724.849051
 C91: y2 + 1.074449y1 <= 733.888055
 C92: y2 + 1.100240y1 <= 743.379059
 C93: y2 + 1.127064y1 <= 753.357561
 C94: y2 + 1.155004y1 <= 763.863122
 C95: y2 + 1.184154y1 <= 774.939983
 C96: y2 + 1.214617y1 <= 786.637795
 C97: y2 + 1.246510y1 <= 799.012504
 C98: y2 + 1.279967y1 <= 812.127407
 C99: y2 + 1.315136y1 <= 826.054445
 C100: y2 + 1.352189y1 <= 840.875777
 C101: y2 + 1.391323y1 <= 856.685718
 C102: y2 + 1.432763y1 <= 873.593156
 C103: y2 + 1.476771y1 <= 891.724571
 C104: y2 + 1.523654y1 <= 911.227862
 C105: y2 + 1.573772y1 <= 932.277242
 C106: y2 + 1.627551y1 <= 955.079574
 C107: y2 + 1.685502y1 <= 979.882671
 C108: y2 + 1.748242y1 <= 1006.986338
 C109: y2 + 1.816524y1 <= 1036.757282
 C110: y2 + 1.891279y1 <= 1069.649594
 C111: y2 + 1.973675y1 <= 1106.233473
 C112: y2 + 2.065199y1 <= 1147.236393
 C113: y2 + 2.167782y1 <= 1193.603642
 C114: y2 + 2.283980y1 <= 1246.590033
 C115: y2 + 2.417271y1 <= 1307.903732
 C116: y2 + 2.572524y1 <= 1379.941274
 C117: y2 + 2.756819y1 <= 1466.191173
 C118: y2 + 2.980928y1 <= 1571.970890
 C119: y2 + 3.262253y1 <= 1705.881411
 C120: y2 + 3.631226y1 <= 1882.988344
 C121: y2 + 4.147459y1 <= 2132.845304
 C122: y2 + 4.950258y1 <= 2524.611031
 C123: y2 + 6.491324y1 <= 3282.815448
 C124: y2 + 15.779734y1 <= 7889.866919
 C125: y1 - .1y3 <= .025
 C126: -y1 + .1y3 <= .025
 C127: -y1 <= 0
 C128: -y2 <= 0
General
 y3
End
